NAME 
ROWS
 N  OBJ
 L  R0      
 E  R1      
 E  R2      
 E  R3      
 E  R4      
 E  R5      
COLUMNS
    MARKER    'MARKER'                 'INTORG'
    I0(3)     OBJ       69
    I0(3)     R0        166
    I0(3)     R2        15
    I0(3)     R5        1
    I1(3)     OBJ       -6
    I1(3)     R0        -32
    I1(3)     R1        10
    I1(3)     R5        1
    MARKER    'MARKER'                 'INTEND'
    C2(3)     R0        2
    C2(3)     R1        2
    C2(3)     R3        16
    C3(3)     OBJ       -5
    C3(3)     R0        -7
    C3(3)     R1        5
    C3(3)     R3        19
    C4(3)     OBJ       3
    C4(3)     R0        -5
    C4(3)     R1        15
    C4(3)     R2        9
    C5(1)     R1        1
    C6(1)     R2        1
    C7(1)     R3        1
    C8(1)     R4        1
    C9(1)     R5        1
RHS
    RHS1      R0        -2.4684210526315788e+01
    RHS1      R1        54
    RHS1      R2        50
    RHS1      R3        67
    RHS1      R4        95
BOUNDS
 UP BND1      I0(3)     2
 UP BND1      I1(3)     2
ENDATA
